objective value:                                   72
lambda[0,53]*                                       2 	(obj:0)
lambda[0,61]*                                       1 	(obj:0)
lambda[0,62]*                                       1 	(obj:0)
lambda[1,51]*                                       1 	(obj:8)
lambda[1,52]*                                       1 	(obj:8)
lambda[1,53]*                                       1 	(obj:0)
lambda[1,58]*                                       1 	(obj:8)
lambda[0,69]*                                       1 	(obj:0)
lambda[0,70]*                                       3 	(obj:0)
lambda[1,68]*                                       2 	(obj:8)
lambda[1,71]*                                       2 	(obj:8)
lambda[1,72]*                                       2 	(obj:8)
lambda[0,73]*                                       2 	(obj:0)
